experiment/data/lkh-res/Vrp-Set-CMT-n121/Vrp-Set-CMT-n121-lkh/1.lkh1.tour
NAME : 1.104217.tour
COMMENT : Length = 104217
COMMENT : Found by LKH-3 [Keld Helsgaun] Tue Apr  9 01:05:11 2024
TYPE : TOUR
DIMENSION : 127
TOUR_SECTION
1
89
3
2
4
5
6
7
8
10
11
12
16
15
14
13
9
125
120
82
113
85
118
114
84
109
119
19
115
91
92
90
86
87
112
83
122
88
93
94
97
95
98
116
111
99
117
104
105
100
102
103
106
121
127
41
44
46
49
52
51
50
47
48
45
42
43
40
39
38
96
124
18
17
20
26
23
25
28
34
31
32
35
37
30
36
33
29
27
24
21
22
110
123
101
54
56
59
57
61
64
67
65
63
62
66
60
58
55
53
126
107
74
77
69
78
80
81
79
73
76
75
72
71
70
68
108
-1
EOF
